\ENCODING=ISO-8859-1
\Problem name: IloCplex

Maximize
 obj1: X(0) + X(1) + X(2) + X(3) + X(4) + X(5) + X(6) + X(7) + X(8) + X(9)
       + X(10) + X(11) + X(12) + X(13) + X(14) + X(15) + X(16) + X(17) + X(18)
       + X(19)
Subject To
 Capacity: 84 X(0) + 83 X(1) + 43 X(2) + 4 X(3) + 44 X(4) + 6 X(5) + 82 X(6)
           + 92 X(7) + 25 X(8) + 83 X(9) + 56 X(10) + 18 X(11) + 58 X(12)
           + 14 X(13) + 48 X(14) + 70 X(15) + 96 X(16) + 32 X(17) + 68 X(18)
           + 92 X(19) <= 879
Bounds
 0 <= X(0) <= 1
 0 <= X(1) <= 1
 0 <= X(2) <= 1
 0 <= X(3) <= 1
 0 <= X(4) <= 1
 0 <= X(5) <= 1
 0 <= X(6) <= 1
 0 <= X(7) <= 1
 0 <= X(8) <= 1
 0 <= X(9) <= 1
 0 <= X(10) <= 1
 0 <= X(11) <= 1
 0 <= X(12) <= 1
 0 <= X(13) <= 1
 0 <= X(14) <= 1
 0 <= X(15) <= 1
 0 <= X(16) <= 1
 0 <= X(17) <= 1
 0 <= X(18) <= 1
 0 <= X(19) <= 1
Binaries
 X(0)  X(1)  X(2)  X(3)  X(4)  X(5)  X(6)  X(7)  X(8)  X(9)  X(10)  X(11) 
 X(12)  X(13)  X(14)  X(15)  X(16)  X(17)  X(18)  X(19) 
End
